\Problem name: Branch and Bound pai

Minimize
OBJROW: -7 x_1 -7 x_2 -7 x_3 -5 x_4 -8 x_5 -8 x_6 -9 x_7 -10 x_8 -7 x_9
Subject To
constr(0):  x_1 + 3 x_2 + x_3 + 3 x_4 + 3 x_5 + 7 x_6 + 2 x_7 + x_8 + 4 x_9 <= 80
constr(1):  7 x_1 + 6 x_2 + 10 x_3 + x_4 + 7 x_5 + 2 x_6 + 2 x_7 + 7 x_8 + x_9 <= 90
constr(2):  3 x_1 + 2 x_2 + x_3 + 3 x_4 + 3 x_5 + 2 x_6 + x_7 + 6 x_8 + 5 x_9 <= 10
constr(3):  10 x_1 + 8 x_2 + 3 x_3 + 6 x_4 + 10 x_5 + 7 x_6 + 3 x_7 + 10 x_8 + 4 x_9 <= 30
constr(4):  2 x_1 + 8 x_2 + 6 x_3 + 5 x_4 + 6 x_5 + 6 x_6 + 9 x_7 + 7 x_8 + 2 x_9 <= 80
constr(5):  3 x_1 + 10 x_2 + x_3 + 9 x_4 + 2 x_5 + 7 x_6 + 7 x_7 + 9 x_8 + 10 x_9 <= 90
constr(6):  x_1 + 7 x_2 + 10 x_3 + 10 x_4 + 5 x_5 + 2 x_6 + 9 x_7 + 10 x_8 + 2 x_9 <= 20
constr(7):  10 x_1 + 3 x_2 + 2 x_3 + 3 x_4 + 10 x_5 + 2 x_6 + x_7 + 9 x_8 + 7 x_9 <= 10
constr(8):  2 x_1 + x_2 + 7 x_3 + 10 x_4 + x_5 + x_6 + 2 x_7 + x_8 + x_9 <= 50
constr(9):  x_9 = 1
constr(10):  x_6 = 0
constr(11):  x_1 = 0
constr(12):  x_5 = 0
Bounds
End
